peakDumbCharging = 22200; 
Machine = anon_enum(16); 
machineSpeed = [3700,3700,3700,3700,3700,3700,3700,3700,3700,3700,3700,3700,3700,3700,3700,3700]; 
machineLoad = [3700,3700,3700,3700,3700,3700,3700,3700,3700,3700,3700,3700,3700,3700,3700,3700]; 
Car = anon_enum(19); 
demandCar = [24000,2800,10080,5880,10400,6400,11440,9600,6160,2600,5960,1680,23240,5160,44960,11440,32680,3520,30720]; 
arrivalCar = [74,68,67,67,67,66,65,63,60,60,60,59,57,53,51,43,30,29,27]; 
departureCar = [82,72,74,70,71,69,71,67,65,62,64,61,70,55,67,47,64,32,50]; 
